
  22    4
  10   10   10   10

   0   0   0   0   0   4 2 3 4 5 
   2  10  10  10  10   3 10 8 7 
   4  10  10  10  10   4 12 10 9 8 
  10  10  10  10  10   2 8 7 
   2  10  10  10  10   1 6 
   9  10  10  10  10   3 15 12 8 
   6  10  10  10  10   3 13 12 9 
   1  10  10  10  10   2 14 11 
   6  10  10  10  10   2 15 14 
   8  10  10  10  10   2 14 13 
   4  10  10  10  10   2 17 13 
   1  10  10  10  10   5 21 20 19 17 16 
   3  10  10  10  10   4 21 20 19 16 
   3  10  10  10  10   4 21 19 17 16 
   6  10  10  10  10   3 20 19 16 
   6  10  10  10  10   1 18 
   2  10  10  10  10   1 18 
   1  10  10  10  10   1 22
   8  10  10  10  10   1 22
   1  10  10  10  10   1 22
   6  10  10  10  10   1 22
   0   0   0   0   0   0 
